36
2
   13  -72
         1         1         1         1         1         1         1         1         1         1         1         1         1         1         1         1         1         1         1         1         1         1         1         1         1         1         1         1         1         1         1         1         1         1         1         1
    0     1     1     1       -10.000000
    0     1     1    11        -1.000000
    3     1     2     2        40.000000
    4     1     4     4        10.000000
    4     1     4     5        10.000000
    4     1     5     5        10.000000
    5     1     6     6         1.600000
    5     1     6     7         3.200000
    5     1     7     7         6.400000
    6     1     8     8        10.000000
    7     1    10    10         6.400000
    7     1    10    11         3.200000
    7     1    11    11         1.600000
    8     1    12    12         2.500000
    8     1    12    13         2.500000
    8     1    13    13         2.500000
   10     1     2     2        10.000000
   10     1     2     3       -10.000000
   10     1     3     3        10.000000
   11     1     4     4        40.000000
   12     1     6     6        10.000000
   12     1     6     7        10.000000
   12     1     7     7        10.000000
   13     1     8     8         6.400000
   13     1     8     9        -3.200000
   13     1     9     9         1.600000
   14     1    10    10        10.000000
   15     1    12    12         6.400000
   15     1    12    13         3.200000
   15     1    13    13         1.600000
   16     1     2     2         1.600000
   16     1     2     3        -3.200000
   16     1     3     3         6.400000
   17     1     4     4        10.000000
   17     1     4     5       -10.000000
   17     1     5     5        10.000000
   18     1     6     6        40.000000
   19     1     8     8         2.500000
   19     1     8     9        -2.500000
   19     1     9     9         2.500000
   20     1    10    10         6.400000
   20     1    10    11        -3.200000
   20     1    11    11         1.600000
   21     1    12    12        10.000000
   22     1     3     3        40.000000
   22     1     3     5       -40.000000
   22     1     5     5        40.000000
   23     1     3     3        10.000000
   23     1     3     7       -10.000000
   23     1     7     7        10.000000
   24     1     2     2        40.000000
   24     1     2     8       -40.000000
   24     1     8     8        40.000000
   25     1     2     2        10.000000
   25     1     2     3        10.000000
   25     1     3     3        10.000000
   25     1     2    10       -10.000000
   25     1     3    10       -10.000000
   25     1    10    10        10.000000
   25     1     2    11       -10.000000
   25     1     3    11       -10.000000
   25     1    10    11        10.000000
   25     1    11    11        10.000000
   26     1     2     2         1.600000
   26     1     2     3         3.200000
   26     1     3     3         6.400000
   26     1     2    12        -1.600000
   26     1     3    12        -3.200000
   26     1    12    12         1.600000
   26     1     2    13        -3.200000
   26     1     3    13        -6.400000
   26     1    12    13         3.200000
   26     1    13    13         6.400000
   27     1     5     5        40.000000
   27     1     5     7       -40.000000
   27     1     7     7        40.000000
   28     1     4     4        10.000000
   28     1     4     5       -10.000000
   28     1     5     5        10.000000
   28     1     4     8       -10.000000
   28     1     5     8        10.000000
   28     1     8     8        10.000000
   28     1     4     9        10.000000
   28     1     5     9       -10.000000
   28     1     8     9       -10.000000
   28     1     9     9        10.000000
   29     1     4     4        40.000000
   29     1     4    10       -40.000000
   29     1    10    10        40.000000
   30     1     4     4        10.000000
   30     1     4     5        10.000000
   30     1     5     5        10.000000
   30     1     4    12       -10.000000
   30     1     5    12       -10.000000
   30     1    12    12        10.000000
   30     1     4    13       -10.000000
   30     1     5    13       -10.000000
   30     1    12    13        10.000000
   30     1    13    13        10.000000
   31     1     6     6         1.600000
   31     1     6     7        -3.200000
   31     1     7     7         6.400000
   31     1     6     8        -1.600000
   31     1     7     8         3.200000
   31     1     8     8         1.600000
   31     1     6     9         3.200000
   31     1     7     9        -6.400000
   31     1     8     9        -3.200000
   31     1     9     9         6.400000
   32     1     6     6        10.000000
   32     1     6     7       -10.000000
   32     1     7     7        10.000000
   32     1     6    10       -10.000000
   32     1     7    10        10.000000
   32     1    10    10        10.000000
   32     1     6    11        10.000000
   32     1     7    11       -10.000000
   32     1    10    11       -10.000000
   32     1    11    11        10.000000
   33     1     6     6        40.000000
   33     1     6    12       -40.000000
   33     1    12    12        40.000000
   34     1     9     9        40.000000
   34     1     9    11       -40.000000
   34     1    11    11        40.000000
   35     1     9     9        10.000000
   35     1     9    13       -10.000000
   35     1    13    13        10.000000
   36     1    11    11        40.000000
   36     1    11    13       -40.000000
   36     1    13    13        40.000000
    0     2     1     1        -5.000000
    0     2     2     2        -5.000000
    0     2     3     3        -5.000000
    0     2     4     4        -5.000000
    0     2     5     5        -5.000000
    0     2     6     6        -5.000000
    0     2     7     7        -5.000000
    0     2     8     8        -5.000000
    0     2     9     9        -5.000000
    0     2    10    10        -5.000000
    0     2    11    11        -5.000000
    0     2    12    12        -5.000000
    0     2    13    13        -5.000000
    0     2    14    14        -5.000000
    0     2    15    15        -5.000000
    0     2    16    16        -5.000000
    0     2    17    17        -5.000000
    0     2    18    18        -5.000000
    0     2    19    19        -5.000000
    0     2    20    20        -5.000000
    0     2    21    21        -5.000000
    0     2    22    22        -5.000000
    0     2    23    23        -5.000000
    0     2    24    24        -5.000000
    0     2    25    25        -5.000000
    0     2    26    26        -5.000000
    0     2    27    27        -5.000000
    0     2    28    28        -5.000000
    0     2    29    29        -5.000000
    0     2    30    30        -5.000000
    0     2    31    31        -5.000000
    0     2    32    32        -5.000000
    0     2    33    33        -5.000000
    0     2    34    34        -5.000000
    0     2    35    35        -5.000000
    0     2    36    36        -5.000000
    0     2    37    37        -0.000000
    0     2    38    38        -0.000000
    0     2    39    39        -0.000000
    0     2    40    40        -0.000000
    0     2    41    41        -0.000000
    0     2    42    42        -0.000000
    0     2    43    43        -0.000000
    0     2    44    44        -0.000000
    0     2    45    45        -0.000000
    0     2    46    46        -0.000000
    0     2    47    47        -0.000000
    0     2    48    48        -0.000000
    0     2    49    49        -0.000000
    0     2    50    50        -0.000000
    0     2    51    51        -0.000000
    0     2    52    52        -0.000000
    0     2    53    53        -0.000000
    0     2    54    54        -0.000000
    0     2    55    55        -0.000000
    0     2    56    56        -0.000000
    0     2    57    57        -0.000000
    0     2    58    58        -0.000000
    0     2    59    59        -0.000000
    0     2    60    60        -0.000000
    0     2    61    61        -0.000000
    0     2    62    62        -0.000000
    0     2    63    63        -0.000000
    0     2    64    64        -0.000000
    0     2    65    65        -0.000000
    0     2    66    66        -0.000000
    0     2    67    67        -0.000000
    0     2    68    68        -0.000000
    0     2    69    69        -0.000000
    0     2    70    70        -0.000000
    0     2    71    71        -0.000000
    0     2    72    72        -0.000000
    1     2     1     1        -1.000000
    2     2     2     2        -1.000000
    3     2     3     3        -1.000000
    4     2     4     4        -1.000000
    5     2     5     5        -1.000000
    6     2     6     6        -1.000000
    7     2     7     7        -1.000000
    8     2     8     8        -1.000000
    9     2     9     9        -1.000000
   10     2    10    10        -1.000000
   11     2    11    11        -1.000000
   12     2    12    12        -1.000000
   13     2    13    13        -1.000000
   14     2    14    14        -1.000000
   15     2    15    15        -1.000000
   16     2    16    16        -1.000000
   17     2    17    17        -1.000000
   18     2    18    18        -1.000000
   19     2    19    19        -1.000000
   20     2    20    20        -1.000000
   21     2    21    21        -1.000000
   22     2    22    22        -1.000000
   23     2    23    23        -1.000000
   24     2    24    24        -1.000000
   25     2    25    25        -1.000000
   26     2    26    26        -1.000000
   27     2    27    27        -1.000000
   28     2    28    28        -1.000000
   29     2    29    29        -1.000000
   30     2    30    30        -1.000000
   31     2    31    31        -1.000000
   32     2    32    32        -1.000000
   33     2    33    33        -1.000000
   34     2    34    34        -1.000000
   35     2    35    35        -1.000000
   36     2    36    36        -1.000000
    1     2    37    37         1.000000
    2     2    38    38         1.000000
    3     2    39    39         1.000000
    4     2    40    40         1.000000
    5     2    41    41         1.000000
    6     2    42    42         1.000000
    7     2    43    43         1.000000
    8     2    44    44         1.000000
    9     2    45    45         1.000000
   10     2    46    46         1.000000
   11     2    47    47         1.000000
   12     2    48    48         1.000000
   13     2    49    49         1.000000
   14     2    50    50         1.000000
   15     2    51    51         1.000000
   16     2    52    52         1.000000
   17     2    53    53         1.000000
   18     2    54    54         1.000000
   19     2    55    55         1.000000
   20     2    56    56         1.000000
   21     2    57    57         1.000000
   22     2    58    58         1.000000
   23     2    59    59         1.000000
   24     2    60    60         1.000000
   25     2    61    61         1.000000
   26     2    62    62         1.000000
   27     2    63    63         1.000000
   28     2    64    64         1.000000
   29     2    65    65         1.000000
   30     2    66    66         1.000000
   31     2    67    67         1.000000
   32     2    68    68         1.000000
   33     2    69    69         1.000000
   34     2    70    70         1.000000
   35     2    71    71         1.000000
   36     2    72    72         1.000000
